SPARKNaCl/why3-z3/sparknacl-utils.adb_385_22_predicate_check_1.smt2
;; produced by z3_gnatprove.drv ;;
(set-info :smt-lib-version 2.5)
(set-info :source |VC generated by SPARK 2014|)
(set-info :category industrial)
(set-info :status unknown)
;;; generated by SMT-LIB2 driver
;;; SMT-LIB2 driver: bit-vectors, common part
;;; SMT-LIB2: integer arithmetic
(declare-datatypes ()
  ((bool__ref (bool__refqtmk (bool__content Bool)))))

(declare-sort gf16_normal_limb 0)

;; "to_rep"
(declare-fun to_rep (gf16_normal_limb) (_ BitVec 16))

;; "of_rep"
(declare-fun of_rep ((_ BitVec 16)) gf16_normal_limb)

;; "inversion_axiom"
(assert
  (forall ((x gf16_normal_limb))
    (! (= (of_rep (to_rep x)) x) :pattern ((to_rep x)) )))

;; "range_axiom"
(assert true)

;; "coerce_axiom"
(assert
  (forall ((x (_ BitVec 16)))
    (! (= (to_rep (of_rep x)) x) :pattern ((to_rep (of_rep x))) )))

(declare-sort map1 0)

;; "has_bounds"
(declare-fun has_bounds (map1
  Int
  Int) Bool)

;; "get"
(declare-fun get (map1
  Int) gf16_normal_limb)

(declare-const n map1)

(declare-sort gf32_any_limb 0)

;; "gf32_any_limb'int"
(declare-fun gf32_any_limbqtint (gf32_any_limb) Int)

;; "gf32_any_limb'axiom"
(assert
  (forall ((i gf32_any_limb))
    (and
      (<= (- 65536) (gf32_any_limbqtint i))
      (<= (gf32_any_limbqtint i) 132051011))))

;; "in_range"
(define-fun in_range ((x Int)) Bool
  (and (<= (- 65536) x) (<= x 132051011)))

;; "to_rep"
(define-fun to_rep1 ((x gf32_any_limb)) Int
  (gf32_any_limbqtint x))

;; "of_rep"
(declare-fun of_rep1 (Int) gf32_any_limb)

;; "inversion_axiom"
(assert
  (forall ((x gf32_any_limb))
    (! (= (of_rep1 (to_rep1 x)) x) :pattern ((to_rep1 x)) )))

;; "range_axiom"
(assert
  (forall ((x gf32_any_limb))
    (! (in_range (to_rep1 x)) :pattern ((to_rep1 x)) )))

;; "coerce_axiom"
(assert
  (forall ((x Int))
    (! (=> (in_range x) (= (to_rep1 (of_rep1 x)) x)) :pattern ((to_rep1
                                                                 (of_rep1 x))) )))

(declare-sort map2 0)

(declare-datatypes ()
  ((map__ref (map__refqtmk (map__content map2)))))

;; "has_bounds"
(declare-fun has_bounds1 (map2
  Int
  Int) Bool)

;; "get"
(declare-fun get1 (map2
  Int) gf32_any_limb)

;; "bool_eq"
(define-fun bool_eq ((a map2) (a__first Int) (a__last Int) (b map2) (b__first Int) (b__last Int)) Bool
  (ite (and
         (ite (<= a__first a__last)
           (and
             (<= b__first b__last)
             (= (- a__last a__first) (- b__last b__first)))
           (< b__last b__first))
         (forall ((temp___idx_181 Int))
           (=>
             (and (<= a__first temp___idx_181) (<= temp___idx_181 a__last))
             (= (to_rep1 (get1 a temp___idx_181)) (to_rep1
                                                    (get1
                                                      b
                                                      (+ (- b__first a__first) temp___idx_181)))))))
    true
    false))

;; "bool_eq_rev"
(assert
  (forall ((a map2) (b map2))
    (forall ((a__first Int) (a__last Int) (b__first Int) (b__last Int))
      (=>
        (= (bool_eq b b__first b__last a a__first a__last) true)
        (and
          (ite (<= a__first a__last)
            (and
              (<= b__first b__last)
              (= (- a__last a__first) (- b__last b__first)))
            (< b__last b__first))
          (forall ((temp___idx_181 Int))
            (=>
              (and (<= a__first temp___idx_181) (<= temp___idx_181 a__last))
              (= (to_rep1 (get1 a temp___idx_181)) (to_rep1
                                                     (get1
                                                       b
                                                       (+ (- b__first a__first) temp___idx_181)))))))))))

;; "in_range"
(define-fun in_range1 ((x Int)) Bool
  (and (<= 0 x) (<= x 65535)))

;; "dynamic_invariant"
(define-fun dynamic_invariant ((temp___expr_547 map2) (temp___is_init_543 Bool) (temp___skip_constant_544 Bool) (temp___do_toplevel_545 Bool) (temp___do_typ_inv_546 Bool)) Bool
  (and
    (=>
      (= temp___is_init_543 true)
      (=>
        (= temp___do_toplevel_545 true)
        (forall ((i Int))
          (=>
            (and (<= 0 i) (<= i 15))
            (in_range1 (to_rep1 (get1 temp___expr_547 i)))))))
    (has_bounds1 temp___expr_547 0 15)))

;; "temp_____aggregate_def_199"
(declare-fun temp_____aggregate_def_199 (Int
  Int
  Int
  Int
  Int
  Int
  Int
  Int
  Int
  Int
  Int
  Int
  Int
  Int
  Int
  Int) map2)

;; "to_normal_gf32"
(define-fun to_normal_gf32 ((param__x map1)) map2
  (let ((temp___203 (temp_____aggregate_def_199
                      (bv2int (to_rep (get param__x 0)))
                      (bv2int (to_rep (get param__x 1)))
                      (bv2int (to_rep (get param__x 2)))
                      (bv2int (to_rep (get param__x 3)))
                      (bv2int (to_rep (get param__x 4)))
                      (bv2int (to_rep (get param__x 5)))
                      (bv2int (to_rep (get param__x 6)))
                      (bv2int (to_rep (get param__x 7)))
                      (bv2int (to_rep (get param__x 8)))
                      (bv2int (to_rep (get param__x 9)))
                      (bv2int (to_rep (get param__x 10)))
                      (bv2int (to_rep (get param__x 11)))
                      (bv2int (to_rep (get param__x 12)))
                      (bv2int (to_rep (get param__x 13)))
                      (bv2int (to_rep (get param__x 14)))
                      (bv2int (to_rep (get param__x 15))))))
    (let ((temp___204 temp___203)) temp___204)))

;; "in_range"
(define-fun in_range2 ((x Int)) Bool
  (and (<= (- 65536) x) (<= x 65535)))

;; "dynamic_invariant"
(define-fun dynamic_invariant1 ((temp___expr_598 map2) (temp___is_init_594 Bool) (temp___skip_constant_595 Bool) (temp___do_toplevel_596 Bool) (temp___do_typ_inv_597 Bool)) Bool
  (and
    (=>
      (= temp___is_init_594 true)
      (=>
        (= temp___do_toplevel_596 true)
        (and
          (in_range2 (to_rep1 (get1 temp___expr_598 15)))
          (forall ((k Int))
            (=>
              (and (<= 0 k) (<= k 14))
              (in_range1 (to_rep1 (get1 temp___expr_598 k))))))))
    (has_bounds1 temp___expr_598 0 15)))

(declare-sort byte 0)

;; "to_rep"
(declare-fun to_rep2 (byte) (_ BitVec 8))

;; "of_rep"
(declare-fun of_rep2 ((_ BitVec 8)) byte)

;; "inversion_axiom"
(assert
  (forall ((x byte)) (! (= (of_rep2 (to_rep2 x)) x) :pattern ((to_rep2 x)) )))

;; "range_axiom"
(assert true)

;; "coerce_axiom"
(assert
  (forall ((x (_ BitVec 8)))
    (! (= (to_rep2 (of_rep2 x)) x) :pattern ((to_rep2 (of_rep2 x))) )))

;; "def_axiom"
(assert
  (forall ((temp___183 Int) (temp___184 Int) (temp___185 Int) (temp___186 Int) (temp___187 Int) (temp___188 Int) (temp___189 Int) (temp___190 Int) (temp___191 Int) (temp___192 Int) (temp___193 Int) (temp___194 Int) (temp___195 Int) (temp___196 Int) (temp___197 Int) (temp___198 Int))
    (let ((temp___200 (temp_____aggregate_def_199
                        temp___183
                        temp___184
                        temp___185
                        temp___186
                        temp___187
                        temp___188
                        temp___189
                        temp___190
                        temp___191
                        temp___192
                        temp___193
                        temp___194
                        temp___195
                        temp___196
                        temp___197
                        temp___198)))
      (and
        (and
          (and
            (=>
              (in_range temp___183)
              (= (to_rep1 (get1 temp___200 0)) temp___183))
            (=>
              (in_range temp___184)
              (= (to_rep1 (get1 temp___200 1)) temp___184)))
          (and
            (and
              (and
                (and
                  (=>
                    (in_range temp___185)
                    (= (to_rep1 (get1 temp___200 2)) temp___185))
                  (=>
                    (in_range temp___186)
                    (= (to_rep1 (get1 temp___200 3)) temp___186)))
                (and
                  (=>
                    (in_range temp___187)
                    (= (to_rep1 (get1 temp___200 4)) temp___187))
                  (=>
                    (in_range temp___188)
                    (= (to_rep1 (get1 temp___200 5)) temp___188))))
              (and
                (and
                  (=>
                    (in_range temp___189)
                    (= (to_rep1 (get1 temp___200 6)) temp___189))
                  (=>
                    (in_range temp___190)
                    (= (to_rep1 (get1 temp___200 7)) temp___190)))
                (=>
                  (in_range temp___191)
                  (= (to_rep1 (get1 temp___200 8)) temp___191))))
            (and
              (and
                (and
                  (=>
                    (in_range temp___192)
                    (= (to_rep1 (get1 temp___200 9)) temp___192))
                  (=>
                    (in_range temp___193)
                    (= (to_rep1 (get1 temp___200 10)) temp___193)))
                (and
                  (=>
                    (in_range temp___194)
                    (= (to_rep1 (get1 temp___200 11)) temp___194))
                  (=>
                    (in_range temp___195)
                    (= (to_rep1 (get1 temp___200 12)) temp___195))))
              (and
                (and
                  (=>
                    (in_range temp___196)
                    (= (to_rep1 (get1 temp___200 13)) temp___196))
                  (=>
                    (in_range temp___197)
                    (= (to_rep1 (get1 temp___200 14)) temp___197)))
                (=>
                  (in_range temp___198)
                  (= (to_rep1 (get1 temp___200 15)) temp___198))))))
        (=>
          (and
            (and (and (<= 0 0) (<= 0 15)) (and (<= 0 1) (<= 1 15)))
            (and
              (and
                (and
                  (and (and (<= 0 2) (<= 2 15)) (and (<= 0 3) (<= 3 15)))
                  (and (and (<= 0 4) (<= 4 15)) (and (<= 0 5) (<= 5 15))))
                (and
                  (and (and (<= 0 6) (<= 6 15)) (and (<= 0 7) (<= 7 15)))
                  (and (<= 0 8) (<= 8 15))))
              (and
                (and
                  (and (and (<= 0 9) (<= 9 15)) (and (<= 0 10) (<= 10 15)))
                  (and (and (<= 0 11) (<= 11 15)) (and (<= 0 12) (<= 12 15))))
                (and
                  (and (and (<= 0 13) (<= 13 15)) (and (<= 0 14) (<= 14 15)))
                  (and (<= 0 15) (<= 15 15))))))
          (has_bounds1 temp___200 0 15))))))

(declare-const l map2)

(declare-const r1 map2)

(declare-const r2 map2)

(declare-const first_underflow Bool)

(declare-const second_underflow Bool)

;; "r2'unused"
(define-fun r2qtunused () map__ref
  (map__refqtmk r2))

;; "r1'unused"
(define-fun r1qtunused () map__ref
  (map__refqtmk r1))

;; "l'unused"
(define-fun lqtunused () map__ref
  (map__refqtmk l))

;; "Assume"
(assert (has_bounds n 0 15))

;; "Assume"
(assert true)

;; "Assume"
(assert (dynamic_invariant1 l false false true true))

;; "Assume"
(assert true)

;; "Assume"
(assert (dynamic_invariant1 r1 false false true true))

;; "Assume"
(assert true)

;; "Assume"
(assert (dynamic_invariant1 r2 false false true true))

;; "o"
(define-fun o () map1
  n)

;; "temp___772"
(define-fun temp___772 () map2
  (to_normal_gf32 o))

;; "H"
(assert (dynamic_invariant temp___772 true false true true))

;; "H"
(assert
  (= temp___772 (temp_____aggregate_def_199
                  (bv2int (to_rep (get o 0)))
                  (bv2int (to_rep (get o 1)))
                  (bv2int (to_rep (get o 2)))
                  (bv2int (to_rep (get o 3)))
                  (bv2int (to_rep (get o 4)))
                  (bv2int (to_rep (get o 5)))
                  (bv2int (to_rep (get o 6)))
                  (bv2int (to_rep (get o 7)))
                  (bv2int (to_rep (get o 8)))
                  (bv2int (to_rep (get o 9)))
                  (bv2int (to_rep (get o 10)))
                  (bv2int (to_rep (get o 11)))
                  (bv2int (to_rep (get o 12)))
                  (bv2int (to_rep (get o 13)))
                  (bv2int (to_rep (get o 14)))
                  (bv2int (to_rep (get o 15))))))

;; "to_normal_gf32'result'unused"
(define-fun to_normal_gf32qtresultqtunused () map2
  temp___772)

;; "Assert"
(assert
  (and
    (in_range2 (to_rep1 (get1 temp___772 15)))
    (forall ((k Int))
      (=> (and (<= 0 k) (<= k 14)) (in_range1 (to_rep1 (get1 temp___772 k)))))))

(declare-const l1 map2)

;; "l'unused"
(define-fun lqtunused1 () map__ref
  (map__refqtmk l1))

;; "H"
(assert (= l1 temp___772))

;; "map__content'result'unused"
(define-fun map__contentqtresultqtunused () map2
  r1)

;; "bool__content'result'unused"
(define-fun bool__contentqtresultqtunused () Bool
  first_underflow)

;; "map__content'result'unused"
(define-fun map__contentqtresultqtunused1 () map2
  l1)

(declare-const r11 map2)

(declare-const first_underflow1 Bool)

;; "first_underflow'unused"
(define-fun first_underflowqtunused () bool__ref
  (bool__refqtmk first_underflow1))

;; "r1'unused"
(define-fun r1qtunused1 () map__ref
  (map__refqtmk r11))

;; "H"
(assert (<= (- (to_rep1 (get1 l1 15)) 32768) (to_rep1 (get1 r11 15))))

;; "H"
(assert
  (=>
    (not (= first_underflow1 true))
    (forall ((i Int))
      (=> (and (<= 0 i) (<= i 15)) (in_range1 (to_rep1 (get1 r11 i)))))))

;; "H"
(assert (dynamic_invariant1 r11 true true true true))

;; "H"
(assert true)

;; "H"
(assert true)

;; "map__content'result'unused"
(define-fun map__contentqtresultqtunused2 () map2
  r2)

;; "bool__content'result'unused"
(define-fun bool__contentqtresultqtunused1 () Bool
  second_underflow)

;; "map__content'result'unused"
(define-fun map__contentqtresultqtunused3 () map2
  r11)

(declare-const r21 map2)

(declare-const second_underflow1 Bool)

;; "second_underflow'unused"
(define-fun second_underflowqtunused () bool__ref
  (bool__refqtmk second_underflow1))

;; "r2'unused"
(define-fun r2qtunused1 () map__ref
  (map__refqtmk r21))

;; "H"
(assert (<= (- (to_rep1 (get1 r11 15)) 32768) (to_rep1 (get1 r21 15))))

;; "H"
(assert
  (=>
    (not (= second_underflow1 true))
    (forall ((i Int))
      (=> (and (<= 0 i) (<= i 15)) (in_range1 (to_rep1 (get1 r21 i)))))))

;; "H"
(assert (dynamic_invariant1 r21 true true true true))

;; "H"
(assert true)

;; "H"
(assert true)

;; "map__content'result'unused"
(define-fun map__contentqtresultqtunused4 () map2
  r11)

;; "param__p"
(define-fun param__p () map__ref
  (map__refqtmk r11))

;; "map__ref'mk'result'unused"
(define-fun map__refqtmkqtresultqtunused () map__ref
  param__p)

;; "map__content'result'unused"
(define-fun map__contentqtresultqtunused5 () map2
  r21)

;; "param__q"
(define-fun param__q () map__ref
  (map__refqtmk r21))

;; "map__ref'mk'result'unused"
(define-fun map__refqtmkqtresultqtunused1 () map__ref
  param__q)

;; "bool__content'result'unused"
(define-fun bool__contentqtresultqtunused2 () Bool
  second_underflow1)

;; "param__p'unused"
(define-fun param__pqtunused () map__ref
  param__p)

;; "param__q'unused"
(define-fun param__qqtunused () map__ref
  param__q)

(declare-const param__p1 map2)

(declare-const param__q1 map2)

;; "param__q'unused"
(define-fun param__qqtunused1 () map__ref
  (map__refqtmk param__q1))

;; "param__p'unused"
(define-fun param__pqtunused1 () map__ref
  (map__refqtmk param__p1))

;; "H"
(assert
  (ite (= second_underflow1 true)
    (and
      (and
        (and
          (= (bool_eq param__p1 0 15 r21 0 15) true)
          (= (bool_eq param__q1 0 15 r11 0 15) true))
        (=
          (forall ((i Int))
            (=> (and (<= 0 i) (<= i 15)) (in_range1 (to_rep1 (get1 r11 i)))))
          (forall ((i Int))
            (=>
              (and (<= 0 i) (<= i 15))
              (in_range1 (to_rep1 (get1 param__q1 i)))))))
      (=
        (forall ((i Int))
          (=> (and (<= 0 i) (<= i 15)) (in_range1 (to_rep1 (get1 r21 i)))))
        (forall ((i Int))
          (=>
            (and (<= 0 i) (<= i 15))
            (in_range1 (to_rep1 (get1 param__p1 i)))))))
    (=>
      (= (not second_underflow1) true)
      (and
        (and
          (and
            (= (bool_eq param__p1 0 15 r11 0 15) true)
            (= (bool_eq param__q1 0 15 r21 0 15) true))
          (=
            (forall ((i Int))
              (=>
                (and (<= 0 i) (<= i 15))
                (in_range1 (to_rep1 (get1 r11 i)))))
            (forall ((i Int))
              (=>
                (and (<= 0 i) (<= i 15))
                (in_range1 (to_rep1 (get1 param__p1 i)))))))
        (=
          (forall ((i Int))
            (=> (and (<= 0 i) (<= i 15)) (in_range1 (to_rep1 (get1 r21 i)))))
          (forall ((i Int))
            (=>
              (and (<= 0 i) (<= i 15))
              (in_range1 (to_rep1 (get1 param__q1 i))))))))))

;; "H"
(assert (has_bounds1 param__p1 0 15))

;; "H"
(assert (has_bounds1 param__q1 0 15))

;; "H"
(assert true)

;; "H"
(assert true)

;; "map__content'result'unused"
(define-fun map__contentqtresultqtunused6 () map2
  param__p1)

(declare-const r12 map2)

;; "r1'unused"
(define-fun r1qtunused2 () map__ref
  (map__refqtmk r12))

;; "H"
(assert (= r12 param__p1))

;; "Assert"
(assert
  (and
    (in_range2 (to_rep1 (get1 r12 15)))
    (forall ((k Int))
      (=> (and (<= 0 k) (<= k 14)) (in_range1 (to_rep1 (get1 r12 k)))))))

;; "map__content'result'unused"
(define-fun map__contentqtresultqtunused7 () map2
  param__q1)

(declare-const r22 map2)

;; "r2'unused"
(define-fun r2qtunused2 () map__ref
  (map__refqtmk r22))

;; "H"
(assert (= r22 param__q1))

;; "Assert"
(assert
  (and
    (in_range2 (to_rep1 (get1 r22 15)))
    (forall ((k Int))
      (=> (and (<= 0 k) (<= k 14)) (in_range1 (to_rep1 (get1 r22 k)))))))

;; "map__content'result'unused"
(define-fun map__contentqtresultqtunused8 () map2
  l1)

;; "param__p"
(define-fun param__p2 () map__ref
  (map__refqtmk l1))

;; "map__ref'mk'result'unused"
(define-fun map__refqtmkqtresultqtunused2 () map__ref
  param__p2)

;; "map__content'result'unused"
(define-fun map__contentqtresultqtunused9 () map2
  r22)

;; "param__q"
(define-fun param__q2 () map__ref
  (map__refqtmk r22))

;; "map__ref'mk'result'unused"
(define-fun map__refqtmkqtresultqtunused3 () map__ref
  param__q2)

;; "bool__content'result'unused"
(define-fun bool__contentqtresultqtunused3 () Bool
  first_underflow1)

;; "param__p'unused"
(define-fun param__pqtunused2 () map__ref
  param__p2)

;; "param__q'unused"
(define-fun param__qqtunused2 () map__ref
  param__q2)

(declare-const param__p3 map2)

(declare-const param__q3 map2)

;; "param__q'unused"
(define-fun param__qqtunused3 () map__ref
  (map__refqtmk param__q3))

;; "param__p'unused"
(define-fun param__pqtunused3 () map__ref
  (map__refqtmk param__p3))

;; "H"
(assert
  (ite (= first_underflow1 true)
    (and
      (and
        (and
          (= (bool_eq param__p3 0 15 r22 0 15) true)
          (= (bool_eq param__q3 0 15 l1 0 15) true))
        (=
          (forall ((i Int))
            (=> (and (<= 0 i) (<= i 15)) (in_range1 (to_rep1 (get1 l1 i)))))
          (forall ((i Int))
            (=>
              (and (<= 0 i) (<= i 15))
              (in_range1 (to_rep1 (get1 param__q3 i)))))))
      (=
        (forall ((i Int))
          (=> (and (<= 0 i) (<= i 15)) (in_range1 (to_rep1 (get1 r22 i)))))
        (forall ((i Int))
          (=>
            (and (<= 0 i) (<= i 15))
            (in_range1 (to_rep1 (get1 param__p3 i)))))))
    (=>
      (= (not first_underflow1) true)
      (and
        (and
          (and
            (= (bool_eq param__p3 0 15 l1 0 15) true)
            (= (bool_eq param__q3 0 15 r22 0 15) true))
          (=
            (forall ((i Int))
              (=> (and (<= 0 i) (<= i 15)) (in_range1 (to_rep1 (get1 l1 i)))))
            (forall ((i Int))
              (=>
                (and (<= 0 i) (<= i 15))
                (in_range1 (to_rep1 (get1 param__p3 i)))))))
        (=
          (forall ((i Int))
            (=> (and (<= 0 i) (<= i 15)) (in_range1 (to_rep1 (get1 r22 i)))))
          (forall ((i Int))
            (=>
              (and (<= 0 i) (<= i 15))
              (in_range1 (to_rep1 (get1 param__q3 i))))))))))

;; "H"
(assert (has_bounds1 param__p3 0 15))

;; "H"
(assert (has_bounds1 param__q3 0 15))

;; "H"
(assert true)

;; "H"
(assert true)

;; "map__content'result'unused"
(define-fun map__contentqtresultqtunused10 () map2
  param__p3)

(declare-const l2 map2)

;; "l'unused"
(define-fun lqtunused2 () map__ref
  (map__refqtmk l2))

;; "H"
(assert (= l2 param__p3))

;; "Assert"
(assert
  (and
    (in_range2 (to_rep1 (get1 l2 15)))
    (forall ((k Int))
      (=> (and (<= 0 k) (<= k 14)) (in_range1 (to_rep1 (get1 l2 k)))))))

;; "map__content'result'unused"
(define-fun map__contentqtresultqtunused11 () map2
  param__q3)

(declare-const r23 map2)

;; "r2'unused"
(define-fun r2qtunused3 () map__ref
  (map__refqtmk r23))

;; "H"
(assert (= r23 param__q3))

;; "Assert"
(assert
  (and
    (in_range2 (to_rep1 (get1 r23 15)))
    (forall ((k Int))
      (=> (and (<= 0 k) (<= k 14)) (in_range1 (to_rep1 (get1 r23 k)))))))

;; "map__content'result'unused"
(define-fun map__contentqtresultqtunused12 () map2
  l2)

;; "param__r'unused"
(define-fun param__rqtunused () map__ref
  (map__refqtmk l2))

;; "map__ref'mk'result'unused"
(define-fun map__refqtmkqtresultqtunused4 () map__ref
  (map__refqtmk l2))

(declare-const param__r map2)

;; "param__r'unused"
(define-fun param__rqtunused1 () map__ref
  (map__refqtmk param__r))

;; "H"
(assert
  (forall ((i Int))
    (=> (and (<= 0 i) (<= i 15)) (in_range1 (to_rep1 (get1 param__r i))))))

;; "H"
(assert (has_bounds1 param__r 0 15))

;; "H"
(assert true)

;; "H"
(assert true)

;; "map__content'result'unused"
(define-fun map__contentqtresultqtunused13 () map2
  param__r)

(declare-const l3 map2)

;; "l'unused"
(define-fun lqtunused3 () map__ref
  (map__refqtmk l3))

;; "H"
(assert (= l3 param__r))

;; Goal "def'vc"
;; File "sparknacl-utils.ads", line 54, characters 0-0
(assert
  (not (<= (- 65536) (to_rep1 (get1 l3 15)))))

(check-sat)
